(set-logic BV)

(define-fun ehad ((x (_ BitVec 64))) (_ BitVec 64)
    (bvlshr x #x0000000000000001))
(define-fun arba ((x (_ BitVec 64))) (_ BitVec 64)
    (bvlshr x #x0000000000000004))
(define-fun shesh ((x (_ BitVec 64))) (_ BitVec 64)
    (bvlshr x #x0000000000000010))
(define-fun smol ((x (_ BitVec 64))) (_ BitVec 64)
    (bvshl x #x0000000000000001))
(define-fun im ((x (_ BitVec 64)) (y (_ BitVec 64)) (z (_ BitVec 64))) (_ BitVec 64)
    (ite (= x #x0000000000000001) y z))
(synth-fun f ((x (_ BitVec 64))) (_ BitVec 64)
    ((Start (_ BitVec 64)))
    ((Start (_ BitVec 64) (#x0000000000000000 #x0000000000000001 x (bvnot Start) (smol Start) (ehad Start) (arba Start) (shesh Start) (bvand Start Start) (bvor Start Start) (bvxor Start Start) (bvadd Start Start) (im Start Start Start)))))

(constraint (= (f #x296e29c563670c08) #x00000296e29c5636))
(constraint (= (f #x9096a7e3127e9b38) #x0000000000000000))
(constraint (= (f #x7670839c2ae8eb77) #x0000000000000001))
(constraint (= (f #x1ab9e2248573e1ee) #x0000000000000000))
(constraint (= (f #x5e1e722cecd24e91) #x000005e1e722cecd))
(constraint (= (f #x0e362e1e4ae97ded) #x0000000000000001))
(constraint (= (f #xa7e4c4437b4e5e0b) #x00000a7e4c4437b4))
(constraint (= (f #x80ea76a7e097ea87) #x0000080ea76a7e09))
(constraint (= (f #xd06e03c3ba82e5ae) #x0000000000000000))
(constraint (= (f #x868e5ac7d6019609) #x00000868e5ac7d60))

(check-synth)

